param sigma
: 1   2 :=
1 0.00001 0.99999
2 0.10000 0.90000
3 0.20000 0.80000
4 0.30000 0.70000
5 0.40000 0.60000
6 0.50000 0.50000
7 0.90000 0.10000
8 0.80000 0.20000
9 0.70000 0.30000
10 0.60000 0.40000
11 0.99999 0.00001
;

set S:=
1 2 3 4 5 6 7 8 9 10 11 12 13 14 15 16 17 18 19 20 21 22 23 24 25 26 27 28 29 30 31 32 33 34 35 36 37 38 39 40 41 42 43 44 45 46 47 48 49 50 51 52 53 54 55 56 57 58 59 60 61 62 63 64 65 66 67 68 69 70 71 72 73 74 75 76 77 78 79 80 81 82 83 84 ;

set C:=
1 2 3 4 5 6 7 8 9 10 11 12 ;

set A:=
1 2 3 4 5 6 7 8 9 10 11 12 13 14 15 16 17 18 19 20 21 22 23 ;

set T:=
1_1_2 1_3_4 1_5_6 1_7_8 1_9_10
2_1_2 2_3_4 2_5_6 2_7_8 2_9_10
;

set R:=
1 2 3 4 5 ;

set Ac[1]:=
1 2 ;
set Ac[2]:=
3 4 ;
set Ac[3]:=
5 6 ;
set Ac[4]:=
7 8 ;
set Ac[5]:=
9 10 ;
set Ac[6]:=
11 12 ;
set Ac[7]:=
13 14 ;
set Ac[8]:=
15 16 ;
set Ac[9]:=
17 18 ;
set Ac[10]:=
19 20 ;
set Ac[11]:=
21 22 ;
set Ac[12]:=
23 24 ;

set Cs[1]:=
11 12 2 5 9 3 ;
set Cs[2]:=
5 2 7 11 12 3 9 ;
set Cs[3]:=
2 5 11 3 9 12 1 ;
set Cs[4]:=
12 5 2 9 3 1 ;
set Cs[5]:=
2 3 5 8 12 9 ;
set Cs[6]:=
5 2 9 3 12 ;
set Cs[7]:=
5 11 12 2 9 3 1 ;
set Cs[8]:=
11 5 12 2 9 8 3 ;
set Cs[9]:=
2 11 12 5 9 1 7 ;
set Cs[10]:=
5 11 3 9 2 12 ;
set Cs[11]:=
2 9 5 12 3 11 ;
set Cs[12]:=
2 9 11 5 12 3 1 ;
set Cs[13]:=
5 2 1 11 12 3 9 ;
set Cs[14]:=
9 11 3 2 5 12 ;
set Cs[15]:=
5 12 2 9 3 11 8 ;
set Cs[16]:=
2 5 9 11 3 ;
set Cs[17]:=
5 11 2 9 12 8 3 ;
set Cs[18]:=
12 5 2 9 3 11 8 ;
set Cs[19]:=
5 2 3 9 12 ;
set Cs[20]:=
3 2 5 11 9 ;
set Cs[21]:=
2 3 5 12 9 11 1 ;
set Cs[22]:=
5 12 2 11 9 3 8 ;
set Cs[23]:=
5 2 11 9 12 3 1 ;
set Cs[24]:=
3 5 2 12 9 11 ;
set Cs[25]:=
5 11 12 2 9 3 8 ;
set Cs[26]:=
2 5 11 1 9 12 3 ;
set Cs[27]:=
2 12 11 5 9 ;
set Cs[28]:=
2 5 11 12 9 ;
set Cs[29]:=
2 5 9 12 11 3 ;
set Cs[30]:=
5 2 3 12 8 1 ;
set Cs[31]:=
2 5 9 12 11 ;
set Cs[32]:=
2 5 12 9 11 3 ;
set Cs[33]:=
2 12 9 5 11 3 ;
set Cs[34]:=
2 1 5 11 9 12 3 ;
set Cs[35]:=
12 2 5 9 11 3 ;
set Cs[36]:=
2 3 5 11 12 ;
set Cs[37]:=
2 5 12 9 3 11 ;
set Cs[38]:=
5 9 2 11 1 12 3 ;
set Cs[39]:=
5 2 9 11 12 3 ;
set Cs[40]:=
2 9 5 11 3 ;
set Cs[41]:=
12 1 9 5 2 11 ;
set Cs[42]:=
9 5 12 11 3 2 ;
set Cs[43]:=
12 9 11 2 5 3 ;
set Cs[44]:=
2 3 5 11 12 ;
set Cs[45]:=
2 9 12 3 11 5 ;
set Cs[46]:=
2 11 5 12 9 ;
set Cs[47]:=
2 11 9 3 12 5 7 ;
set Cs[48]:=
5 3 11 2 12 ;
set Cs[49]:=
5 11 2 9 12 3 6 ;
set Cs[50]:=
2 12 3 5 11 9 ;
set Cs[51]:=
9 5 2 11 12 1 ;
set Cs[52]:=
5 11 9 2 12 ;
set Cs[53]:=
5 2 9 12 11 3 ;
set Cs[54]:=
5 2 7 9 11 12 ;
set Cs[55]:=
5 11 2 9 12 ;
set Cs[56]:=
2 11 12 9 5 ;
set Cs[57]:=
2 5 9 11 12 ;
set Cs[58]:=
2 9 5 12 3 11 ;
set Cs[59]:=
5 11 2 12 9 1 3 ;
set Cs[60]:=
5 2 3 11 12 9 ;
set Cs[61]:=
2 9 12 5 3 ;
set Cs[62]:=
2 11 3 5 12 9 1 ;
set Cs[63]:=
5 9 2 11 12 ;
set Cs[64]:=
9 2 3 5 11 12 ;
set Cs[65]:=
2 5 11 3 12 9 8 ;
set Cs[66]:=
12 2 5 9 3 11 4 ;
set Cs[67]:=
11 9 5 6 3 ;
set Cs[68]:=
5 2 12 11 9 3 1 ;
set Cs[69]:=
5 2 11 9 12 ;
set Cs[70]:=
11 2 12 5 8 ;
set Cs[71]:=
12 2 5 9 11 3 7 ;
set Cs[72]:=
11 5 2 9 12 7 ;
set Cs[73]:=
5 12 9 10 2 7 ;
set Cs[74]:=
5 2 9 11 12 ;
set Cs[75]:=
2 11 9 5 12 ;
set Cs[76]:=
2 9 11 5 12 ;
set Cs[77]:=
2 11 5 12 9 3 8 ;
set Cs[78]:=
2 5 9 3 11 ;
set Cs[79]:=
2 12 9 5 11 3 8 ;
set Cs[80]:=
9 5 12 2 11 3 8 ;
set Cs[81]:=
2 12 5 7 9 11 ;
set Cs[82]:=
12 5 6 11 9 3 ;
set Cs[83]:=
12 2 5 3 11 ;
set Cs[84]:=
2 5 9 11 12 ;

set Ra[1]:=
1 2 3 4 5 ;
set Ra[2]:=
1 2 3 4 5 ;
set Ra[3]:=
1 2 3 4 5 ;
set Ra[4]:=
1 2 3 4 5 ;
set Ra[5]:=
1 2 3 4 5 ;
set Ra[6]:=
1 2 3 4 5 ;
set Ra[7]:=
1 2 3 4 5 ;
set Ra[8]:=
1 2 3 4 5 ;
set Ra[9]:=
1 2 3 4 5 ;
set Ra[10]:=
1 2 3 4 5 ;
set Ra[11]:=
1 2 3 4 5 ;
set Ra[12]:=
1 2 3 4 5 ;
set Ra[13]:=
1 2 3 4 5 ;
set Ra[14]:=
1 2 3 4 5 ;
set Ra[15]:=
1 2 3 4 5 ;
set Ra[16]:=
1 2 3 4 5 ;
set Ra[17]:=
1 2 3 4 5 ;
set Ra[18]:=
1 2 3 4 5 ;
set Ra[19]:=
1 2 3 4 5 ;
set Ra[20]:=
1 2 3 4 5 ;
set Ra[21]:=
1 2 3 4 5 ;
set Ra[22]:=
1 2 3 4 5 ;
set Ra[23]:=
1 2 3 4 5 ;

set Ts[1]:=
1_3_4 2_7_8 2_3_4 2_1_2 ;
set Ts[2]:=
1_5_6 1_1_2 2_5_6 ;
set Ts[3]:=
2_1_2 1_3_4 1_1_2 ;
set Ts[4]:=
1_3_4 2_5_6 1_9_10 ;
set Ts[5]:=
2_3_4 1_7_8 2_7_8 2_9_10 ;
set Ts[6]:=
1_7_8 2_9_10 ;
set Ts[7]:=
2_5_6 1_9_10 1_5_6 1_3_4 ;
set Ts[8]:=
1_3_4 2_9_10 1_1_2 2_1_2 ;
set Ts[9]:=
1_5_6 2_3_4 ;
set Ts[10]:=
2_9_10 1_3_4 ;
set Ts[11]:=
2_5_6 2_9_10 2_3_4 1_9_10 ;
set Ts[12]:=
1_3_4 1_7_8 2_1_2 2_9_10 ;
set Ts[13]:=
1_3_4 2_7_8 1_5_6 ;
set Ts[14]:=
2_1_2 1_7_8 ;
set Ts[15]:=
1_1_2 1_7_8 ;
set Ts[16]:=
1_9_10 2_3_4 2_7_8 1_1_2 ;
set Ts[17]:=
2_9_10 1_9_10 2_3_4 ;
set Ts[18]:=
2_9_10 2_5_6 ;
set Ts[19]:=
1_5_6 2_1_2 1_7_8 2_9_10 ;
set Ts[20]:=
1_5_6 1_7_8 ;
set Ts[21]:=
2_3_4 1_3_4 ;
set Ts[22]:=
2_3_4 1_7_8 1_9_10 ;
set Ts[23]:=
2_7_8 1_5_6 2_5_6 2_1_2 ;
set Ts[24]:=
2_7_8 2_3_4 ;
set Ts[25]:=
2_5_6 1_1_2 ;
set Ts[26]:=
1_5_6 1_1_2 2_3_4 ;
set Ts[27]:=
2_5_6 2_1_2 ;
set Ts[28]:=
2_7_8 2_3_4 ;
set Ts[29]:=
1_5_6 2_3_4 ;
set Ts[30]:=
2_7_8 1_1_2 2_1_2 2_9_10 ;
set Ts[31]:=
1_9_10 2_3_4 ;
set Ts[32]:=
2_9_10 1_7_8 ;
set Ts[33]:=
1_9_10 2_7_8 ;
set Ts[34]:=
2_9_10 1_3_4 1_5_6 ;
set Ts[35]:=
2_5_6 1_9_10 1_3_4 ;
set Ts[36]:=
1_9_10 2_7_8 2_5_6 2_1_2 ;
set Ts[37]:=
2_1_2 2_3_4 ;
set Ts[38]:=
2_1_2 2_7_8 2_9_10 1_9_10 ;
set Ts[39]:=
2_5_6 2_3_4 1_1_2 1_3_4 ;
set Ts[40]:=
1_7_8 1_9_10 ;
set Ts[41]:=
2_1_2 2_7_8 2_9_10 ;
set Ts[42]:=
1_5_6 1_3_4 1_9_10 ;
set Ts[43]:=
1_1_2 2_1_2 2_3_4 ;
set Ts[44]:=
1_5_6 1_9_10 2_9_10 2_5_6 ;
set Ts[45]:=
1_1_2 1_5_6 ;
set Ts[46]:=
1_5_6 1_3_4 ;
set Ts[47]:=
1_9_10 1_5_6 ;
set Ts[48]:=
1_9_10 2_1_2 1_5_6 1_7_8 ;
set Ts[49]:=
1_3_4 2_3_4 2_1_2 1_1_2 ;
set Ts[50]:=
1_9_10 1_1_2 1_5_6 ;
set Ts[51]:=
2_7_8 1_3_4 1_7_8 1_5_6 ;
set Ts[52]:=
1_9_10 1_3_4 2_9_10 2_3_4 ;
set Ts[53]:=
2_3_4 1_9_10 ;
set Ts[54]:=
2_3_4 1_1_2 2_7_8 1_5_6 ;
set Ts[55]:=
2_3_4 1_1_2 2_5_6 1_3_4 ;
set Ts[56]:=
1_7_8 2_7_8 2_5_6 ;
set Ts[57]:=
2_5_6 2_9_10 2_1_2 1_7_8 ;
set Ts[58]:=
2_5_6 2_7_8 1_7_8 ;
set Ts[59]:=
2_5_6 1_9_10 1_5_6 2_1_2 ;
set Ts[60]:=
1_3_4 2_7_8 1_7_8 2_9_10 ;
set Ts[61]:=
2_1_2 1_9_10 1_7_8 2_7_8 ;
set Ts[62]:=
2_9_10 2_5_6 1_7_8 2_1_2 ;
set Ts[63]:=
2_1_2 2_9_10 ;
set Ts[64]:=
1_3_4 1_7_8 2_9_10 2_1_2 ;
set Ts[65]:=
1_7_8 1_5_6 ;
set Ts[66]:=
2_7_8 2_3_4 2_5_6 ;
set Ts[67]:=
1_7_8 1_1_2 2_9_10 2_5_6 ;
set Ts[68]:=
2_1_2 1_3_4 2_7_8 2_5_6 ;
set Ts[69]:=
2_1_2 2_3_4 ;
set Ts[70]:=
1_3_4 1_7_8 ;
set Ts[71]:=
2_1_2 2_9_10 ;
set Ts[72]:=
1_3_4 2_1_2 1_9_10 2_7_8 ;
set Ts[73]:=
2_3_4 1_3_4 ;
set Ts[74]:=
2_5_6 1_1_2 1_9_10 2_3_4 ;
set Ts[75]:=
2_1_2 2_9_10 1_3_4 ;
set Ts[76]:=
1_5_6 2_7_8 1_1_2 2_1_2 ;
set Ts[77]:=
1_5_6 1_7_8 2_7_8 ;
set Ts[78]:=
1_9_10 2_9_10 1_5_6 ;
set Ts[79]:=
2_9_10 1_7_8 2_7_8 ;
set Ts[80]:=
2_7_8 2_3_4 2_5_6 ;
set Ts[81]:=
2_5_6 1_9_10 2_1_2 ;
set Ts[82]:=
2_9_10 1_3_4 2_5_6 ;
set Ts[83]:=
2_5_6 1_1_2 ;
set Ts[84]:=
2_3_4 1_7_8 1_1_2 ;

param rho:=
1 84
2 84
3 84
4 84
5 84
;

param sigma_class:=
1 84
2 84
3 84
4 84
5 84
;

param kmin:=
1 3
2 3
3 3
4 3
5 3
6 2
7 3
8 3
9 3
10 3
11 3
12 3
13 3
14 3
15 3
16 2
17 3
18 3
19 2
20 2
21 3
22 3
23 3
24 3
25 3
26 3
27 2
28 2
29 3
30 3
31 2
32 3
33 3
34 3
35 3
36 2
37 3
38 3
39 3
40 2
41 3
42 3
43 3
44 2
45 3
46 2
47 3
48 2
49 3
50 3
51 3
52 2
53 3
54 3
55 2
56 2
57 2
58 3
59 3
60 3
61 2
62 3
63 2
64 3
65 3
66 3
67 2
68 3
69 2
70 2
71 3
72 3
73 3
74 2
75 2
76 2
77 3
78 2
79 3
80 3
81 3
82 3
83 2
84 2
;

param kmax:=
1 6
2 7
3 7
4 6
5 6
6 5
7 7
8 7
9 7
10 6
11 6
12 7
13 7
14 6
15 7
16 5
17 7
18 7
19 5
20 5
21 7
22 7
23 7
24 6
25 7
26 7
27 5
28 5
29 6
30 6
31 5
32 6
33 6
34 7
35 6
36 5
37 6
38 7
39 6
40 5
41 6
42 6
43 6
44 5
45 6
46 5
47 7
48 5
49 7
50 6
51 6
52 5
53 6
54 6
55 5
56 5
57 5
58 6
59 7
60 6
61 5
62 7
63 5
64 6
65 7
66 7
67 5
68 7
69 5
70 5
71 7
72 6
73 6
74 5
75 5
76 5
77 7
78 5
79 7
80 7
81 6
82 6
83 5
84 5
;

